0 5043
2401 4918
4802 4807
7203 4710
9604 4624
12005 4539
14406 4480
16807 4431
19208 4406
21609 4366
24010 4332
26411 4303
28812 4287
31213 4264
33614 4248
36015 4225
38416 4200
40817 4180
43218 4156
45619 4140
48020 4123
50421 4113
52822 4105
55223 4096
57624 4095
60025 4081
62426 4080
64827 4074
67228 4063
69629 4050
72030 4049
